VER
1

OBJSENSE
MIN

VAR
2 1
F 2

INT
2
0
1

PSDVAR
1
2

CON
11 1
L+ 11

PSDCON
1
2

OBJFCOORD
2
0 0 0 1.000000
0 1 1 1.000000

OBJACOORD
2
0 1.000000
1 1.000000

FCOORD
7
0 0 1 0 1.000000
5 0 0 0 1.0
6 0 1 0 1.0
7 0 1 1 1.0
8 0 0 0 -1.0
9 0 1 0 -1.0
10 0 1 1 -1.0

ACOORD
6
0 0 -1.000000
0 1 -1.000000
1 0 1.0
2 1 1.0
3 0 -1.0
4 1 -1.0

BCOORD
10
1 10.0
2 10.0
3 10.0
4 10.0
5 10.0
6 20.0
7 10.0
8 10.0
9 20.0
10 10.0

HCOORD
4
0 0 1 0 1.000000
0 0 1 1 3.000000
0 1 0 0 3.000000
0 1 1 0 1.000000

DCOORD
2
0 0 0 -1.000000
0 1 1 -1.000000
